0	131	181	92	133	120	78	28	25	133	102	
122	0	38	85	168	162	134	47	195	48	179	
137	39	0	64	54	91	38	74	62	152	116	
26	197	156	0	126	200	120	69	45	177	50	
132	196	112	198	0	89	29	96	66	33	45	
174	102	21	111	169	0	30	167	76	175	116	
36	98	69	163	29	154	0	123	131	77	153	
130	180	33	49	165	87	93	0	134	195	118	
164	148	41	110	55	161	146	73	0	120	20	
145	52	29	41	72	198	165	105	142	0	157	
80	106	192	183	128	46	29	128	190	104	0	
